1 -1 2 0
1 -1 3 0
1 -1 4 0
1 -5 -1 0
1 -6 -7 0
1 -6 8 0
1 6 -9 0
1 10 -11 0
1 -10 12 0
1 13 14 0
1 -13 10 0
1 -13 -15 0
1 -9 -10 0
1 -9 -13 0
1 9 -16 0
1 -9 -17 0
1 2 -1 0
1 -3 -18 0
1 3 10 0
1 3 -5 0
1 -15 -12 0
1 -15 19 0
1 20 -18 0
1 20 13 0
1 -20 -21 0
1 -17 22 0
1 -14 23 0
1 -14 21 0
1 -14 -24 0
1 -21 25 0
1 -21 26 0
1 -21 -20 0
1 21 -27 0
1 -21 28 0
1 11 -26 0
1 -11 -29 0
1 11 10 0
1 -11 -30 0
1 -11 -17 0
1 11 -31 0
1 12 -14 0
1 12 -20 0
1 -12 -10 0
1 12 6 0
1 -12 -31 0
1 7 32 0
1 -7 -14 0
1 -7 -30 0
1 7 -33 0
1 7 -31 0
1 28 -26 0
1 28 -11 0
1 -28 -34 0
1 28 22 0
1 -26 -11 0
1 -26 -35 0
1 26 34 0
1 -27 -25 0
1 -25 -36 0
1 25 27 0
1 25 -21 0
1 22 25 0
1 22 -14 0
1 -22 23 0
1 22 -37 0
1 -22 -28 0
1 -22 17 0
1 -23 -26 0
1 23 -28 0
1 23 -17 0
1 -23 38 0
1 24 -26 0
1 -24 39 0
1 24 38 0
1 24 -31 0
1 34 -25 0
1 -34 -26 0
1 34 14 0
1 34 40 0
1 -34 37 0
1 34 39 0
1 34 28 0
1 34 -38 0
1 -4 -41 0
1 -41 -42 0
1 -41 -5 0
1 41 43 0
1 -41 -44 0
1 8 -45 0
1 -46 -42 0
1 -46 47 0
1 -46 -48 0
1 -46 8 0
1 -42 49 0
1 42 -50 0
1 -42 51 0
1 -44 -49 0
1 -44 -18 0
1 -44 -52 0
1 -44 4 0
1 -53 54 0
1 -53 55 0
1 53 56 0
1 57 49 0
1 -57 -41 0
1 57 -56 0
1 57 4 0
1 -19 18 0
1 19 -47 0
1 -18 47 0
1 -18 -44 0
1 58 -48 0
1 58 -14 0
1 58 54 0
1 -58 -59 0
1 -58 44 0
1 47 35 0
1 -47 -16 0
1 -47 19 0
1 -47 -8 0
1 48 -60 0
1 -48 61 0
1 48 62 0
1 -63 -60 0
1 -63 -64 0
1 -63 46 0
1 63 65 0
1 63 51 0
1 -63 19 0
1 45 58 0
1 16 -7 0
1 16 59 0
1 16 -2 0
1 16 -48 0
1 35 2 0
1 -35 48 0
1 35 -66 0
1 -35 3 0
1 -33 -67 0
1 33 -12 0
1 -33 -68 0
1 36 -69 0
1 -36 -25 0
1 -36 -7 0
1 36 70 0
1 -67 -58 0
1 67 -71 0
1 -67 -30 0
1 67 -33 0
1 67 31 0
1 66 35 0
1 66 16 0
1 -59 -72 0
1 -59 -33 0
1 73 74 0
1 30 69 0
1 30 -70 0
1 30 68 0
1 31 -69 0
1 31 -67 0
1 31 -75 0
1 31 21 0
1 -39 69 0
1 -39 -32 0
1 -39 76 0
1 39 70 0
1 39 -75 0
1 77 69 0
1 -77 -32 0
1 -77 -29 0
1 77 34 0
1 77 -70 0
1 -77 75 0
1 77 -78 0
1 -77 68 0
1 77 -79 0
1 -75 80 0
1 -75 -39 0
1 -75 81 0
1 69 80 0
1 69 81 0
1 -70 80 0
1 -70 -2 0
1 68 81 0
1 -68 -82 0
1 68 77 0
1 37 69 0
1 37 34 0
1 37 -29 0
1 -37 -23 0
1 37 -83 0
1 37 -24 0
1 37 38 0
1 38 69 0
1 38 -23 0
1 84 -69 0
1 84 -29 0
1 84 85 0
1 -84 -75 0
1 84 83 0
1 -84 -86 0
1 -87 -32 0
1 -87 78 0
1 -87 -86 0
1 87 -88 0
1 -83 29 0
1 83 89 0
1 83 -37 0
1 -83 90 0
1 83 -87 0
1 -83 38 0
1 -29 91 0
1 -29 -39 0
1 29 -92 0
1 -29 38 0
1 78 32 0
1 78 -93 0
1 78 80 0
1 78 -94 0
1 -78 -87 0
1 89 -95 0
1 -95 -89 0
1 -95 -81 0
1 -91 -96 0
1 91 83 0
1 -86 97 0
1 86 84 0
1 -96 -97 0
1 96 95 0
1 96 87 0
1 -98 -99 0
1 98 91 0
1 -98 40 0
1 98 -100 0
1 -98 -87 0
1 40 -34 0
1 40 -91 0
1 -40 98 0
1 -40 95 0
1 -101 102 0
1 -101 -43 0
1 101 -103 0
1 43 104 0
1 43 102 0
1 -43 -105 0
1 43 106 0
1 -43 107 0
1 -43 -101 0
1 -108 107 0
1 109 -104 0
1 -109 102 0
1 -109 -110 0
1 107 -54 0
1 107 101 0
1 -102 -107 0
1 102 -109 0
1 102 -111 0
1 102 -101 0
1 106 104 0
1 -106 -112 0
1 -106 -43 0
1 -106 -113 0
1 106 -101 0
1 104 -112 0
1 -104 43 0
1 -104 -108 0
1 111 114 0
1 111 -107 0
1 55 57 0
1 56 102 0
1 56 57 0
1 56 113 0
1 -54 -107 0
1 -54 -115 0
1 54 -114 0
1 -54 116 0
1 54 117 0
1 54 57 0
1 54 -56 0
1 54 -118 0
1 119 -49 0
1 -119 -54 0
1 -119 120 0
1 -119 -56 0
1 -119 108 0
1 120 121 0
1 120 122 0
1 -120 49 0
1 120 123 0
1 -120 -65 0
1 120 -56 0
1 -120 -111 0
1 110 124 0
1 -110 55 0
1 110 -56 0
1 110 111 0
1 114 121 0
1 114 -125 0
1 -114 55 0
1 -114 -126 0
1 114 -108 0
1 -51 -120 0
1 51 -57 0
1 51 126 0
1 49 -35 0
1 49 -125 0
1 49 57 0
1 -49 -119 0
1 65 -127 0
1 -65 -128 0
1 -65 -63 0
1 65 -120 0
1 -65 -45 0
1 -65 129 0
1 122 -127 0
1 -122 -50 0
1 122 -119 0
1 -127 -60 0
1 127 -49 0
1 127 -76 0
1 -127 -117 0
1 127 -65 0
1 127 -79 0
1 117 -60 0
1 -117 49 0
1 117 54 0
1 117 -76 0
1 -117 -130 0
1 117 74 0
1 -117 56 0
1 118 122 0
1 118 49 0
1 118 -131 0
1 118 -132 0
1 -116 122 0
1 116 51 0
1 -116 -56 0
1 -74 -50 0
1 74 59 0
1 74 -123 0
1 74 -52 0
1 -60 121 0
1 -60 -63 0
1 -60 52 0
1 60 45 0
1 60 -73 0
1 76 50 0
1 76 64 0
1 -76 -59 0
1 76 117 0
1 76 -133 0
1 -76 -134 0
1 -76 -79 0
1 -79 -135 0
1 -79 62 0
1 -79 73 0
1 -79 77 0
1 50 85 0
1 50 76 0
1 -50 -65 0
1 -50 -52 0
1 50 -82 0
1 52 -50 0
1 -52 -85 0
1 52 -71 0
1 52 44 0
1 52 65 0
1 -52 136 0
1 52 -82 0
1 -128 -137 0
1 128 74 0
1 -128 138 0
1 128 -79 0
1 -134 60 0
1 134 -128 0
1 -134 65 0
1 -134 139 0
1 71 -64 0
1 71 59 0
1 -71 140 0
1 71 -52 0
1 -71 -66 0
1 71 -82 0
1 82 -66 0
1 82 71 0
1 -82 -52 0
1 82 68 0
1 85 50 0
1 -85 84 0
1 -85 70 0
1 85 52 0
1 88 85 0
1 88 52 0
1 -88 -141 0
1 -88 142 0
1 88 68 0
1 135 -85 0
1 135 143 0
1 -135 -94 0
1 135 82 0
1 135 79 0
1 -62 93 0
1 -62 -135 0
1 -62 85 0
1 -62 143 0
1 -62 48 0
1 62 -81 0
1 -62 -88 0
1 62 79 0
1 -64 144 0
1 64 -145 0
1 64 85 0
1 -64 -76 0
1 -64 143 0
1 141 -76 0
1 -141 138 0
1 -80 -89 0
1 80 -75 0
1 80 -142 0
1 81 -32 0
1 -81 80 0
1 -81 146 0
1 81 78 0
1 81 -142 0
1 -93 -147 0
1 -93 91 0
1 93 -72 0
1 -93 -148 0
1 93 78 0
1 -93 149 0
1 -94 32 0
1 94 -150 0
1 -94 -62 0
1 -146 151 0
1 146 93 0
1 146 85 0
1 146 152 0
1 -152 -151 0
1 -152 -85 0
1 -152 153 0
1 -152 92 0
1 72 -154 0
1 72 59 0
1 72 -155 0
1 72 81 0
1 -142 -93 0
1 -142 81 0
1 -142 73 0
1 -142 -88 0
1 -142 -156 0
1 -99 -148 0
1 92 146 0
1 92 -78 0
1 92 149 0
1 151 157 0
1 151 158 0
1 151 -159 0
1 -153 -146 0
1 153 -159 0
1 153 -90 0
1 -148 -97 0
1 -148 -151 0
1 -148 -93 0
1 148 160 0
1 147 69 0
1 147 161 0
1 -147 -162 0
1 147 100 0
1 -147 92 0
1 147 -163 0
1 -158 -154 0
1 -158 -93 0
1 -158 -164 0
1 158 165 0
1 -158 163 0
1 -149 -165 0
1 -149 94 0
1 97 154 0
1 97 -166 0
1 -97 86 0
1 -100 -97 0
1 100 -96 0
1 100 148 0
1 -100 159 0
1 160 -167 0
1 160 -159 0
1 -162 -168 0
1 162 169 0
1 -162 -167 0
1 -162 -148 0
1 162 -90 0
1 -162 -170 0
1 90 97 0
1 -90 151 0
1 -90 -162 0
1 -90 171 0
1 -168 -97 0
1 -168 -172 0
1 -168 -100 0
1 -168 -153 0
1 -159 -151 0
1 -159 162 0
1 -159 -173 0
1 -166 -97 0
1 -166 151 0
1 -166 -174 0
1 -166 -162 0
1 166 -173 0
1 -166 163 0
1 -175 168 0
1 175 -163 0
1 176 169 0
1 -176 90 0
1 172 169 0
1 -170 -172 0
1 170 162 0
1 -170 -177 0
1 167 -175 0
1 -178 162 0
1 -178 98 0
1 178 -179 0
1 -178 -160 0
1 169 -180 0
1 169 181 0
1 169 -182 0
1 169 183 0
1 -169 178 0
1 169 -176 0
1 -103 -105 0
1 -103 -184 0
1 105 185 0
1 105 43 0
1 -105 -184 0
1 105 -103 0
1 186 187 0
1 -188 189 0
1 -188 -109 0
1 -188 -190 0
1 -188 -184 0
1 185 -184 0
1 -185 103 0
1 -184 191 0
1 -184 -188 0
1 184 -192 0
1 -184 -193 0
1 184 194 0
1 184 103 0
1 195 -105 0
1 -196 -191 0
1 -196 197 0
1 196 -105 0
1 196 192 0
1 -196 -198 0
1 -196 -199 0
1 193 187 0
1 193 -106 0
1 193 -189 0
1 113 -200 0
1 113 104 0
1 115 -201 0
1 -115 54 0
1 115 202 0
1 -115 -185 0
1 115 -187 0
1 115 203 0
1 -115 184 0
1 204 112 0
1 -204 129 0
1 204 -126 0
1 204 186 0
1 205 -188 0
1 -205 -206 0
1 -205 113 0
1 -187 191 0
1 -187 193 0
1 187 186 0
1 189 -112 0
1 189 187 0
1 -189 186 0
1 189 -207 0
1 126 -107 0
1 126 -104 0
1 -125 201 0
1 -129 -114 0
1 129 -65 0
1 -129 -208 0
1 124 200 0
1 -124 209 0
1 124 204 0
1 -124 -210 0
1 124 129 0
1 -124 -211 0
1 -124 110 0
1 210 -115 0
1 -210 -123 0
1 210 -129 0
1 -200 -212 0
1 -200 133 0
1 -200 -123 0
1 203 -201 0
1 -203 -126 0
1 -201 206 0
1 201 213 0
1 123 -200 0
1 -123 -209 0
1 123 -120 0
1 -123 210 0
1 123 -119 0
1 -121 60 0
1 -121 -200 0
1 121 114 0
1 121 -210 0
1 121 -211 0
1 121 -118 0
1 133 -200 0
1 -133 214 0
1 133 116 0
1 215 200 0
1 -215 214 0
1 -215 216 0
1 -215 217 0
1 -215 -218 0
1 -215 -219 0
1 211 -140 0
1 211 123 0
1 211 -132 0
1 209 121 0
1 209 -102 0
1 -209 -220 0
1 -209 221 0
1 209 129 0
1 209 222 0
1 -209 -215 0
1 -208 -121 0
1 208 221 0
1 208 223 0
1 208 212 0
1 -208 -133 0
1 208 129 0
1 208 224 0
1 -208 -222 0
1 -208 213 0
1 -214 121 0
1 -214 223 0
1 214 -129 0
1 -214 -208 0
1 140 -217 0
1 -140 -71 0
1 140 132 0
1 -132 -116 0
1 132 -140 0
1 -132 -117 0
1 -132 -219 0
1 -225 -223 0
1 225 -226 0
1 -225 130 0
1 -225 211 0
1 -225 139 0
1 139 -227 0
1 139 -209 0
1 -139 219 0
1 219 -145 0
1 -219 -225 0
1 219 -228 0
1 219 -150 0
1 -219 -139 0
1 219 -215 0
1 217 -229 0
1 -217 -145 0
1 -217 140 0
1 217 228 0
1 217 -139 0
1 -217 -132 0
1 218 -140 0
1 -218 230 0
1 218 132 0
1 216 231 0
1 -216 -140 0
1 -216 -228 0
1 216 -222 0
1 -216 -139 0
1 -216 132 0
1 145 134 0
1 -145 52 0
1 -145 -219 0
1 -145 -131 0
1 138 134 0
1 -138 52 0
1 -138 -81 0
1 -138 222 0
1 138 131 0
1 144 -137 0
1 144 -226 0
1 -144 -141 0
1 144 -150 0
1 -150 -227 0
1 150 -232 0
1 -150 -144 0
1 150 -217 0
1 150 -226 0
1 150 -130 0
1 -150 136 0
1 -150 131 0
1 -227 -127 0
1 227 233 0
1 130 -234 0
1 -130 -235 0
1 -130 -145 0
1 -131 144 0
1 131 -150 0
1 -226 229 0
1 226 236 0
1 -226 228 0
1 -226 -139 0
1 -235 229 0
1 235 130 0
1 235 237 0
1 -235 -143 0
1 -235 141 0
1 235 -62 0
1 235 142 0
1 143 -232 0
1 143 -228 0
1 143 -141 0
1 -143 -142 0
1 -157 232 0
1 157 -238 0
1 -157 -72 0
1 157 130 0
1 157 -155 0
1 155 227 0
1 -155 -238 0
1 -155 -153 0
1 155 236 0
1 155 136 0
1 155 -239 0
1 232 -50 0
1 232 240 0
1 232 144 0
1 232 -164 0
1 -232 155 0
1 -232 -143 0
1 136 -154 0
1 136 -157 0
1 136 -235 0
1 136 -232 0
1 137 234 0
1 -137 128 0
1 137 241 0
1 -137 144 0
1 137 233 0
1 137 -155 0
1 -237 235 0
1 237 144 0
1 -237 242 0
1 -237 233 0
1 -237 134 0
1 -237 143 0
1 237 243 0
1 154 234 0
1 154 -238 0
1 154 -146 0
1 -154 244 0
1 165 232 0
1 165 -233 0
1 -165 152 0
1 245 246 0
1 245 164 0
1 -245 -247 0
1 -245 -136 0
1 -245 -239 0
1 -245 -244 0
1 245 -156 0
1 164 238 0
1 164 -162 0
1 164 -158 0
1 -164 136 0
1 164 149 0
1 -248 244 0
1 248 -135 0
1 -248 174 0
1 248 -249 0
1 248 -165 0
1 -248 -155 0
1 -248 -173 0
1 244 -154 0
1 244 174 0
1 244 165 0
1 244 -250 0
1 -244 -251 0
1 244 -163 0
1 -238 165 0
1 -238 239 0
1 238 -252 0
1 -239 -253 0
1 239 155 0
1 239 254 0
1 163 -161 0
1 163 -148 0
1 163 -159 0
1 -163 244 0
1 -163 -149 0
1 161 246 0
1 161 -158 0
1 -161 -159 0
1 173 -248 0
1 -173 246 0
1 173 -255 0
1 -174 173 0
1 247 256 0
1 -247 161 0
1 247 164 0
1 -257 -258 0
1 257 256 0
1 257 245 0
1 -246 -259 0
1 -246 156 0
1 -246 260 0
1 -246 173 0
1 -156 261 0
1 -156 -262 0
1 -156 -174 0
1 -156 -245 0
1 -171 -169 0
1 -171 263 0
1 171 159 0
1 171 178 0
1 -171 -257 0
1 256 166 0
1 256 -247 0
1 256 90 0
1 -256 -178 0
1 -256 257 0
1 -264 -265 0
1 -258 266 0
1 258 267 0
1 -258 255 0
1 -258 268 0
1 -263 269 0
1 263 -180 0
1 263 -258 0
1 -263 -256 0
1 -263 148 0
1 -263 183 0
1 -263 -264 0
1 263 171 0
1 270 -269 0
1 270 -147 0
1 -270 -258 0
1 -270 -256 0
1 270 183 0
1 -270 -264 0
1 -270 171 0
1 -255 -271 0
1 255 256 0
1 -255 158 0
1 255 -272 0
1 255 273 0
1 -255 274 0
1 -255 -260 0
1 -266 269 0
1 266 256 0
1 -266 -174 0
1 266 -272 0
1 266 -255 0
1 -183 -270 0
1 183 275 0
1 -183 -267 0
1 183 -167 0
1 -183 -260 0
1 -183 276 0
1 183 170 0
1 -180 -275 0
1 -180 -267 0
1 180 167 0
1 277 275 0
1 -277 267 0
1 -277 -181 0
1 -277 276 0
1 -277 -177 0
1 278 -270 0
1 -278 181 0
1 -278 -268 0
1 -278 -177 0
1 -268 -279 0
1 268 280 0
1 268 281 0
1 -267 278 0
1 -267 180 0
1 -267 -168 0
1 267 282 0
1 -267 -281 0
1 -276 -180 0
1 276 283 0
1 -276 272 0
1 -276 -159 0
1 -276 -264 0
1 276 -284 0
1 -275 -278 0
1 275 180 0
1 275 -166 0
1 275 183 0
1 -275 -276 0
1 279 179 0
1 -279 -177 0
1 281 -267 0
1 -281 -285 0
1 281 268 0
1 281 -177 0
1 286 287 0
1 286 -268 0
1 286 -280 0
1 280 -267 0
1 -280 181 0
1 177 285 0
1 177 -170 0
1 177 280 0
1 285 288 0
1 -285 280 0
1 179 -289 0
1 181 278 0
1 181 289 0
1 -181 -179 0
1 -181 -281 0
1 290 291 0
1 -290 -292 0
1 293 -294 0
1 293 190 0
1 293 295 0
1 190 296 0
1 -190 297 0
1 -298 291 0
1 -298 190 0
1 292 -197 0
1 -292 290 0
1 292 -198 0
1 199 294 0
1 -199 -195 0
1 -199 -196 0
1 -197 298 0
1 -197 -292 0
1 -197 -196 0
1 198 -299 0
1 198 300 0
1 -202 295 0
1 -202 301 0
1 -202 302 0
1 202 -198 0
1 303 -304 0
1 -303 305 0
1 -303 -191 0
1 303 198 0
1 295 202 0
1 295 197 0
1 295 -306 0
1 295 -293 0
1 -294 -197 0
1 -294 -190 0
1 294 198 0
1 307 294 0
1 -307 -197 0
1 -307 -190 0
1 192 195 0
1 -192 -196 0
1 192 295 0
1 -192 -301 0
1 192 189 0
1 -191 -300 0
1 -191 187 0
1 191 -302 0
1 -308 -309 0
1 308 187 0
1 -308 129 0
1 -304 -303 0
1 304 -300 0
1 -304 -310 0
1 304 -194 0
1 -304 -189 0
1 300 191 0
1 -300 -311 0
1 300 302 0
1 -302 -312 0
1 -302 192 0
1 -302 313 0
1 -299 -314 0
1 -299 315 0
1 -299 304 0
1 299 316 0
1 299 202 0
1 299 192 0
1 301 -317 0
1 301 308 0
1 -301 192 0
1 301 313 0
1 -206 312 0
1 206 300 0
1 -206 203 0
1 206 189 0
1 -206 205 0
1 -318 310 0
1 -318 133 0
1 -318 302 0
1 319 320 0
1 -319 321 0
1 310 319 0
1 310 -304 0
1 -310 223 0
1 310 212 0
1 194 319 0
1 -194 -304 0
1 -194 -322 0
1 -309 -319 0
1 309 312 0
1 309 304 0
1 -309 -323 0
1 309 -318 0
1 309 324 0
1 -309 -325 0
1 324 312 0
1 -324 -309 0
1 324 -318 0
1 324 -308 0
1 -324 -196 0
1 -212 -201 0
1 212 200 0
1 212 -208 0
1 -213 -212 0
1 213 320 0
1 213 -321 0
1 213 -207 0
1 -223 326 0
1 223 -214 0
1 223 -320 0
1 223 208 0
1 -223 -194 0
1 -322 -326 0
1 322 -327 0
1 322 310 0
1 -322 -320 0
1 322 -321 0
1 322 194 0
1 -321 -319 0
1 -321 221 0
1 321 318 0
1 321 322 0
1 326 -328 0
1 326 -221 0
1 -326 321 0
1 326 -329 0
1 326 -230 0
1 -326 -322 0
1 -320 -330 0
1 -320 -331 0
1 320 -223 0
1 -320 187 0
1 -320 -318 0
1 207 -330 0
1 207 -331 0
1 -207 223 0
1 207 -329 0
1 207 332 0
1 -207 333 0
1 -221 326 0
1 221 -331 0
1 -221 -208 0
1 -222 -334 0
1 222 -327 0
1 222 -218 0
1 222 -325 0
1 231 327 0
1 -231 -335 0
1 231 -321 0
1 231 336 0
1 -231 218 0
1 -230 326 0
1 -230 -334 0
1 -230 -336 0
1 -230 -224 0
1 -230 -337 0
1 -336 -327 0
1 -336 221 0
1 336 236 0
1 336 -210 0
1 327 -338 0
1 327 231 0
1 327 -221 0
1 -327 -228 0
1 -327 336 0
1 -339 -340 0
1 -339 -221 0
1 339 -203 0
1 -334 -201 0
1 334 -341 0
1 334 340 0
1 334 -328 0
1 334 -342 0
1 -334 339 0
1 334 329 0
1 -334 -222 0
1 229 -235 0
1 -229 220 0
1 -229 -217 0
1 229 -218 0
1 228 229 0
1 -228 -335 0
1 -228 -216 0
1 228 -226 0
1 228 -143 0
1 -343 -340 0
1 -343 335 0
1 -343 220 0
1 343 344 0
1 343 236 0
1 -236 -345 0
1 -337 -242 0
1 -337 -233 0
1 -220 234 0
1 -220 343 0
1 -220 -209 0
1 -220 346 0
1 220 236 0
1 220 228 0
1 224 335 0
1 -224 -236 0
1 224 347 0
1 335 -229 0
1 335 -224 0
1 -335 231 0
1 -335 -348 0
1 335 -236 0
1 234 -154 0
1 -234 -227 0
1 234 -130 0
1 234 345 0
1 234 349 0
1 -233 237 0
1 -233 -337 0
1 -233 -345 0
1 -350 242 0
1 -350 351 0
1 350 -237 0
1 -350 337 0
1 -350 -349 0
1 -242 350 0
1 242 -352 0
1 -242 353 0
1 242 220 0
1 -242 -164 0
1 -242 354 0
1 -242 -237 0
1 -349 350 0
1 -349 -343 0
1 349 -253 0
1 -349 -344 0
1 -349 -242 0
1 349 355 0
1 -344 -234 0
1 -344 -356 0
1 -344 242 0
1 -344 357 0
1 344 252 0
1 -345 358 0
1 345 242 0
1 -359 -360 0
1 -359 -361 0
1 -359 -346 0
1 -253 -353 0
1 -253 -238 0
1 -253 351 0
1 253 -136 0
1 253 -239 0
1 252 -352 0
1 -252 -240 0
1 -252 -351 0
1 252 243 0
1 -362 241 0
1 -362 -174 0
1 362 -344 0
1 -362 351 0
1 -362 243 0
1 -362 252 0
1 -362 -349 0
1 353 -363 0
1 -353 364 0
1 -353 -242 0
1 -353 -252 0
1 354 261 0
1 354 262 0
1 -354 253 0
1 -354 -365 0
1 -354 -265 0
1 352 366 0
1 -352 -252 0
1 -351 350 0
1 351 367 0
1 351 365 0
1 -351 -368 0
1 250 353 0
1 -250 -240 0
1 250 -354 0
1 250 243 0
1 250 -369 0
1 262 -353 0
1 262 -248 0
1 262 239 0
1 -262 250 0
1 265 -241 0
1 265 -240 0
1 -265 -370 0
1 265 368 0
1 265 -254 0
1 261 353 0
1 261 -258 0
1 -261 -370 0
1 261 354 0
1 -261 243 0
1 -240 271 0
1 -240 232 0
1 -240 371 0
1 369 372 0
1 369 -274 0
1 -369 -265 0
1 369 -250 0
1 241 261 0
1 241 250 0
1 -241 -252 0
1 243 -262 0
1 -243 362 0
1 -243 -237 0
1 -243 252 0
1 260 249 0
1 260 -246 0
1 -260 -251 0
1 -271 -180 0
1 271 -364 0
1 271 246 0
1 271 247 0
1 -271 -260 0
1 -271 -257 0
1 274 -240 0
1 274 259 0
1 274 373 0
1 -274 -369 0
1 274 251 0
1 -374 259 0
1 -374 251 0
1 -249 374 0
1 -249 375 0
1 -249 -287 0
1 249 -272 0
1 -249 274 0
1 -249 -260 0
1 249 265 0
1 249 -251 0
1 -249 -376 0
1 251 374 0
1 -251 261 0
1 370 -377 0
1 -370 -375 0
1 370 -260 0
1 -370 -265 0
1 -370 -254 0
1 -370 376 0
1 -254 374 0
1 254 261 0
1 254 -370 0
1 254 372 0
1 254 378 0
1 -272 -270 0
1 272 -249 0
1 272 -276 0
1 -269 379 0
1 -269 -275 0
1 -269 249 0
1 269 -259 0
1 269 -373 0
1 -269 272 0
1 -269 281 0
1 287 -251 0
1 287 380 0
1 287 -381 0
1 381 382 0
1 -381 249 0
1 381 383 0
1 -381 276 0
1 381 -380 0
1 -381 384 0
1 373 -374 0
1 -373 283 0
1 373 -247 0
1 373 -287 0
1 -373 289 0
1 -384 385 0
1 -384 -257 0
1 -384 386 0
1 -259 -269 0
1 259 374 0
1 -380 -387 0
1 -380 -375 0
1 -380 287 0
1 380 -388 0
1 -380 389 0
1 -283 275 0
1 -283 -276 0
1 283 -179 0
1 289 -181 0
1 289 -383 0
1 -289 276 0
1 -390 382 0
1 390 -391 0
1 390 282 0
1 390 181 0
1 390 384 0
1 385 382 0
1 385 282 0
1 385 -373 0
1 -385 -284 0
1 385 -179 0
1 -383 -392 0
1 383 -393 0
1 383 390 0
1 383 -287 0
1 383 263 0
1 383 -394 0
1 383 -385 0
1 392 393 0
1 273 -395 0
1 273 255 0
1 273 -289 0
1 -382 -396 0
1 -382 287 0
1 -382 -397 0
1 -382 -289 0
1 -398 282 0
1 -398 395 0
1 398 -383 0
1 399 282 0
1 -399 398 0
1 -399 383 0
1 -399 -284 0
1 399 179 0
1 393 -288 0
1 -393 -383 0
1 -393 394 0
1 394 392 0
1 394 -284 0
1 -394 -400 0
1 282 -399 0
1 284 401 0
1 284 391 0
1 391 401 0
1 -391 -399 0
1 391 385 0
1 -402 403 0
1 402 404 0
1 402 -405 0
1 -402 -400 0
1 404 282 0
1 -406 -401 0
1 -406 405 0
1 -406 400 0
1 -407 -282 0
1 407 -408 0
1 -407 -405 0
1 -400 -406 0
1 400 402 0
1 -400 288 0
1 -400 -394 0
1 288 400 0
1 -288 -285 0
1 -288 -407 0
1 405 -393 0
1 -405 -407 0
1 405 404 0
1 403 -181 0
1 403 -404 0
1 317 299 0
1 317 409 0
1 -317 206 0
1 -317 -301 0
1 -315 -409 0
1 410 -314 0
1 410 -318 0
1 -410 -306 0
1 -314 -299 0
1 -314 -410 0
1 -314 -306 0
1 -314 -301 0
1 -411 314 0
1 -411 -412 0
1 411 -323 0
1 -411 -413 0
1 411 -409 0
1 411 317 0
1 411 -414 0
1 -411 -313 0
1 -409 292 0
1 -409 -414 0
1 -409 313 0
1 415 314 0
1 -415 416 0
1 -415 -417 0
1 -417 -418 0
1 413 -419 0
1 413 305 0
1 -413 420 0
1 413 306 0
1 -313 419 0
1 313 -300 0
1 -313 -413 0
1 313 409 0
1 -313 213 0
1 323 -419 0
1 -323 -305 0
1 323 421 0
1 -414 411 0
1 -414 409 0
1 414 422 0
1 -414 -421 0
1 -305 423 0
1 305 -332 0
1 305 414 0
1 -306 314 0
1 -306 -413 0
1 306 -414 0
1 -419 -294 0
1 419 323 0
1 -419 -413 0
1 419 -423 0
1 -419 -414 0
1 420 -419 0
1 420 413 0
1 -420 -307 0
1 420 -410 0
1 -420 -414 0
1 420 313 0
1 -331 -311 0
1 -331 -221 0
1 -331 309 0
1 -331 -422 0
1 -331 325 0
1 331 194 0
1 331 207 0
1 325 305 0
1 325 -311 0
1 325 -422 0
1 -330 -305 0
1 -330 -316 0
1 330 231 0
1 330 306 0
1 330 -332 0
1 -330 424 0
1 -330 207 0
1 332 316 0
1 332 -425 0
1 -332 -306 0
1 332 -422 0
1 332 424 0
1 -311 300 0
1 -311 421 0
1 311 -332 0
1 421 323 0
1 -421 426 0
1 -421 -427 0
1 -316 299 0
1 316 427 0
1 -316 423 0
1 316 -414 0
1 422 -428 0
1 422 330 0
1 422 331 0
1 -422 429 0
1 -422 301 0
1 -422 332 0
1 -328 -229 0
1 328 321 0
1 328 -329 0
1 -328 -424 0
1 329 328 0
1 329 430 0
1 -329 -423 0
1 -329 -424 0
1 340 311 0
1 340 431 0
1 340 -339 0
1 340 -432 0
1 -340 -333 0
1 433 -434 0
1 433 -334 0
1 433 -430 0
1 433 435 0
1 433 339 0
1 -430 328 0
1 430 -436 0
1 430 -437 0
1 432 -438 0
1 432 338 0
1 -432 328 0
1 -425 438 0
1 425 309 0
1 425 439 0
1 425 -433 0
1 425 -424 0
1 424 -438 0
1 -424 -425 0
1 -424 427 0
1 338 -434 0
1 338 334 0
1 -338 435 0
1 -338 431 0
1 -338 -432 0
1 342 -434 0
1 342 -334 0
1 342 335 0
1 342 -336 0
1 440 -441 0
1 440 430 0
1 -440 -436 0
1 440 442 0
1 440 333 0
1 -436 -443 0
1 436 -444 0
1 436 -432 0
1 431 -338 0
1 431 -340 0
1 431 -346 0
1 431 347 0
1 -434 445 0
1 434 -360 0
1 -434 -431 0
1 434 -446 0
1 -435 338 0
1 435 -340 0
1 435 -447 0
1 -435 -448 0
1 -435 -320 0
1 -435 -342 0
1 -435 446 0
1 -435 -333 0
1 333 440 0
1 333 -338 0
1 -333 -446 0
1 333 -449 0
1 -347 444 0
1 347 -337 0
1 -346 341 0
1 -346 335 0
1 -346 -253 0
1 346 -431 0
1 -346 337 0
1 -450 434 0
1 450 451 0
1 450 452 0
1 450 -431 0
1 -450 -444 0
1 450 -345 0
1 -450 252 0
1 360 341 0
1 360 -348 0
1 360 -452 0
1 -360 362 0
1 -360 -447 0
1 -360 444 0
1 -360 -453 0
1 444 -454 0
1 -444 455 0
1 -444 -367 0
1 444 -456 0
1 -444 -347 0
1 451 357 0
1 451 -347 0
1 -442 455 0
1 442 457 0
1 -442 446 0
1 442 -450 0
1 442 347 0
1 -341 -457 0
1 -341 -360 0
1 -341 -458 0
1 -341 -446 0
1 -341 -347 0
1 357 -451 0
1 -357 359 0
1 357 -453 0
1 357 344 0
1 -357 -351 0
1 357 444 0
1 -357 -250 0
1 -357 446 0
1 357 -345 0
1 358 -352 0
1 -358 262 0
1 -358 -348 0
1 358 344 0
1 -368 -348 0
1 368 452 0
1 368 453 0
1 368 361 0
1 368 444 0
1 -368 -265 0
1 -368 -459 0
1 -367 -451 0
1 -367 348 0
1 367 361 0
1 367 -351 0
1 -367 -444 0
1 -367 -460 0
1 460 -461 0
1 -460 358 0
1 460 -360 0
1 -460 462 0
1 -460 365 0
1 460 368 0
1 452 463 0
1 452 364 0
1 -452 -367 0
1 452 357 0
1 -453 464 0
1 453 -455 0
1 453 348 0
1 453 -360 0
1 453 465 0
1 453 466 0
1 -348 -467 0
1 348 360 0
1 -348 453 0
1 -365 452 0
1 -365 -243 0
1 364 -352 0
1 364 -455 0
1 -364 -361 0
1 364 -351 0
1 -364 -354 0
1 -364 459 0
1 364 355 0
1 -462 -463 0
1 462 363 0
1 462 361 0
1 -462 -274 0
1 462 460 0
1 -463 -452 0
1 -463 -468 0
1 -355 379 0
1 355 462 0
1 355 469 0
1 -356 -379 0
1 356 344 0
1 356 -462 0
1 -459 364 0
1 -459 -361 0
1 459 368 0
1 -459 -345 0
1 -459 -470 0
1 361 -471 0
1 -361 461 0
1 -361 -364 0
1 -361 359 0
1 -361 472 0
1 361 -473 0
1 361 -474 0
1 -361 -459 0
1 -372 240 0
1 372 -370 0
1 -372 -468 0
1 372 272 0
1 -372 243 0
1 -372 -254 0
1 379 -366 0
1 379 -461 0
1 -379 -468 0
1 379 -475 0
1 379 -243 0
1 -476 -363 0
1 -476 -477 0
1 -476 -371 0
1 476 -370 0
1 476 478 0
1 -476 -254 0
1 469 363 0
1 469 478 0
1 -469 -254 0
1 363 375 0
1 -363 476 0
1 363 376 0
1 -475 -379 0
1 -475 -363 0
1 -475 375 0
1 -475 372 0
1 -475 -462 0
1 475 -376 0
1 366 379 0
1 -366 -476 0
1 366 462 0
1 -366 479 0
1 -366 -480 0
1 366 -469 0
1 468 481 0
1 -468 -482 0
1 -468 476 0
1 468 372 0
1 -468 462 0
1 -375 -363 0
1 -375 376 0
1 375 -249 0
1 -375 -283 0
1 -375 259 0
1 375 -483 0
1 -376 -371 0
1 -376 -375 0
1 387 363 0
1 -387 477 0
1 -387 371 0
1 -387 -390 0
1 -387 482 0
1 -387 484 0
1 -388 -371 0
1 -388 -484 0
1 388 -259 0
1 -388 -483 0
1 -371 -240 0
1 -371 387 0
1 -371 -478 0
1 -478 -395 0
1 -478 -476 0
1 478 -376 0
1 -477 -241 0
1 -477 -485 0
1 477 -481 0
1 477 -486 0
1 -477 -469 0
1 -483 485 0
1 483 476 0
1 483 243 0
1 483 -388 0
1 -395 382 0
1 -395 -484 0
1 395 259 0
1 395 -273 0
1 -395 -487 0
1 395 -378 0
1 487 371 0
1 -487 -478 0
1 -487 259 0
1 487 -488 0
1 489 -382 0
1 -489 -393 0
1 489 -490 0
1 -489 -386 0
1 -397 489 0
1 -397 -377 0
1 397 478 0
1 397 -394 0
1 484 -396 0
1 -484 387 0
1 -484 -487 0
1 488 396 0
1 488 -484 0
1 -488 -408 0
1 -377 -485 0
1 -377 -387 0
1 377 491 0
1 -377 492 0
1 377 388 0
1 -378 485 0
1 -378 -387 0
1 -378 491 0
1 -378 -492 0
1 -378 388 0
1 -396 -391 0
1 -396 -484 0
1 396 273 0
1 -396 -493 0
1 -396 -383 0
1 396 389 0
1 -396 386 0
1 493 -382 0
1 493 -391 0
1 493 -494 0
1 -401 -406 0
1 -408 -401 0
1 -408 -389 0
1 -494 -396 0
1 494 489 0
1 -494 -373 0
1 386 489 0
1 -386 -494 0
1 386 -408 0
1 386 493 0
1 -386 384 0
1 490 -259 0
1 -490 -397 0
1 490 389 0
1 389 489 0
1 -389 397 0
1 -389 -380 0
1 -495 305 0
1 -495 423 0
1 423 -416 0
1 423 -412 0
1 -423 419 0
1 423 495 0
1 423 496 0
1 423 306 0
1 -423 -422 0
1 -497 -416 0
1 497 412 0
1 497 498 0
1 497 340 0
1 -497 499 0
1 -497 422 0
1 -429 316 0
1 -429 -418 0
1 -429 -433 0
1 -412 441 0
1 -412 411 0
1 -412 500 0
1 -412 501 0
1 -412 -497 0
1 496 -412 0
1 -496 -495 0
1 496 423 0
1 416 -502 0
1 -416 495 0
1 -416 418 0
1 -416 -423 0
1 -418 -495 0
1 418 -503 0
1 418 429 0
1 -418 423 0
1 500 412 0
1 -500 338 0
1 -500 498 0
1 500 425 0
1 500 504 0
1 500 422 0
1 427 -412 0
1 427 316 0
1 -427 -311 0
1 -427 -496 0
1 -427 -424 0
1 -441 -498 0
1 441 496 0
1 -441 -505 0
1 -441 428 0
1 -443 -436 0
1 499 -448 0
1 499 -429 0
1 504 441 0
1 504 448 0
1 -504 -429 0
1 -504 449 0
1 498 -506 0
1 -498 -443 0
1 -505 497 0
1 505 -443 0
1 505 427 0
1 -505 -507 0
1 -438 -508 0
1 438 347 0
1 438 -504 0
1 438 -424 0
1 438 333 0
1 448 438 0
1 -448 -499 0
1 -448 435 0
1 -448 426 0
1 -449 435 0
1 -449 -504 0
1 449 -426 0
1 449 450 0
1 -449 509 0
1 447 -510 0
1 447 -509 0
1 447 508 0
1 447 360 0
1 -447 -511 0
1 -508 447 0
1 -508 -449 0
1 426 -457 0
1 426 421 0
1 -426 448 0
1 426 443 0
1 -426 449 0
1 -510 441 0
1 -510 -512 0
1 510 448 0
1 -510 -443 0
1 510 513 0
1 -428 -514 0
1 428 -510 0
1 -428 -447 0
1 -428 515 0
1 428 -513 0
1 446 -511 0
1 446 445 0
1 -446 508 0
1 -446 -437 0
1 446 -431 0
1 446 -426 0
1 -446 357 0
1 -446 -509 0
1 445 516 0
1 445 -446 0
1 -445 -509 0
1 -458 -517 0
1 -458 457 0
1 -458 518 0
1 -458 511 0
1 458 509 0
1 457 519 0
1 -457 508 0
1 -457 -426 0
1 -457 -442 0
1 -457 458 0
1 437 520 0
1 -437 -455 0
1 -437 445 0
1 437 -447 0
1 -437 458 0
1 437 -449 0
1 -509 -432 0
1 509 -449 0
1 -509 521 0
1 -439 425 0
1 -439 -447 0
1 -439 458 0
1 -439 511 0
1 511 -445 0
1 -511 522 0
1 511 -458 0
1 511 523 0
1 511 449 0
1 -456 524 0
1 -456 451 0
1 -456 455 0
1 456 -348 0
1 -456 -525 0
1 456 453 0
1 455 525 0
1 -455 526 0
1 455 453 0
1 -466 -437 0
1 -466 525 0
1 466 527 0
1 466 528 0
1 466 509 0
1 464 529 0
1 -464 530 0
1 -464 -525 0
1 -464 526 0
1 464 -466 0
1 -464 -527 0
1 464 509 0
1 -526 464 0
1 526 457 0
1 -526 -431 0
1 526 531 0
1 -517 434 0
1 -525 -524 0
1 -525 -520 0
1 525 -532 0
1 -525 -435 0
1 525 522 0
1 -525 466 0
1 -524 -455 0
1 -524 -457 0
1 -524 -522 0
1 -524 -458 0
1 -533 529 0
1 -533 -530 0
1 -533 -453 0
1 -533 -460 0
1 461 -520 0
1 -461 -530 0
1 461 454 0
1 -461 453 0
1 -474 -530 0
1 -474 -467 0
1 474 534 0
1 -474 476 0
1 -474 -535 0
1 474 465 0
1 -471 527 0
1 -471 -465 0
1 -471 536 0
1 471 459 0
1 -471 -469 0
1 -454 -530 0
1 454 474 0
1 -454 537 0
1 530 538 0
1 -530 474 0
1 530 533 0
1 -527 471 0
1 527 464 0
1 527 537 0
1 527 -539 0
1 529 540 0
1 -529 -533 0
1 -529 466 0
1 -529 -527 0
1 529 -539 0
1 529 541 0
1 -473 366 0
1 -473 -530 0
1 473 375 0
1 473 -468 0
1 473 459 0
1 480 -366 0
1 -480 530 0
1 -480 -534 0
1 -480 465 0
1 -480 459 0
1 480 541 0
1 482 542 0
1 -482 -467 0
1 -482 387 0
1 482 -534 0
1 -482 -472 0
1 482 -465 0
1 482 -536 0
1 543 530 0
1 543 534 0
1 -543 -472 0
1 -543 -454 0
1 -536 544 0
1 -536 545 0
1 536 -481 0
1 -536 -473 0
1 -536 -546 0
1 536 479 0
1 -534 -473 0
1 -534 -474 0
1 465 471 0
1 465 467 0
1 465 -482 0
1 -465 474 0
1 467 471 0
1 -467 -544 0
1 467 -482 0
1 467 -547 0
1 467 543 0
1 -481 366 0
1 481 -363 0
1 -481 538 0
1 -481 -536 0
1 479 542 0
1 479 363 0
1 -479 477 0
1 -479 534 0
1 479 536 0
1 -479 -470 0
1 545 548 0
1 -545 -477 0
1 -545 -489 0
1 -545 549 0
1 486 -545 0
1 -486 -534 0
1 -486 -550 0
1 -486 549 0
1 542 550 0
1 -542 492 0
1 -542 486 0
1 -542 -355 0
1 550 -356 0
1 550 486 0
1 470 551 0
1 470 -545 0
1 470 -481 0
1 -470 -482 0
1 -470 -472 0
1 -470 -552 0
1 -470 546 0
1 470 486 0
1 470 479 0
1 -470 -459 0
1 -472 482 0
1 472 -361 0
1 472 486 0
1 -472 -543 0
1 -485 542 0
1 485 -548 0
1 -485 -544 0
1 -485 553 0
1 485 -549 0
1 485 483 0
1 492 -377 0
1 -492 549 0
1 492 -478 0
1 -554 401 0
1 554 -491 0
1 554 549 0
1 554 -378 0
1 -491 -542 0
1 -491 548 0
1 491 -408 0
1 491 549 0
1 491 -378 0
1 555 363 0
1 -555 -554 0
1 555 -485 0
1 -555 -492 0
1 -549 -486 0
1 -548 -485 0
1 -548 545 0
1 -548 -553 0
1 -548 492 0
1 -548 -486 0
1 -553 -491 0
1 553 486 0
1 -507 502 0
1 507 -498 0
1 507 -516 0
1 -507 -504 0
1 516 498 0
1 -516 499 0
1 -516 -556 0
1 -516 -428 0
1 -516 -507 0
1 -518 -502 0
1 -518 501 0
1 -518 506 0
1 -518 557 0
1 518 428 0
1 519 -501 0
1 -519 457 0
1 -519 510 0
1 -519 -503 0
1 519 556 0
1 519 -558 0
1 -501 -559 0
1 501 -528 0
1 501 -513 0
1 -556 -501 0
1 556 560 0
1 -502 -519 0
1 -502 -518 0
1 -503 519 0
1 -513 506 0
1 513 428 0
1 513 -561 0
1 513 -456 0
1 514 455 0
1 528 -561 0
1 -528 466 0
1 528 -558 0
1 528 -562 0
1 -563 464 0
1 563 556 0
1 563 -528 0
1 563 558 0
1 563 562 0
1 557 -520 0
1 557 563 0
1 -557 499 0
1 -557 -514 0
1 -557 -564 0
1 557 -519 0
1 -557 535 0
1 557 -558 0
1 557 518 0
1 558 -565 0
1 558 557 0
1 558 -519 0
1 558 522 0
1 558 566 0
1 -558 513 0
1 -558 -518 0
1 506 567 0
1 506 513 0
1 506 -518 0
1 506 -568 0
1 561 528 0
1 561 513 0
1 522 -524 0
1 -522 -512 0
1 522 511 0
1 -520 -461 0
1 -520 -437 0
1 -520 -522 0
1 -520 558 0
1 -520 509 0
1 -535 524 0
1 535 -557 0
1 535 569 0
1 535 474 0
1 -535 -558 0
1 -535 515 0
1 535 -523 0
1 -565 -471 0
1 -565 -569 0
1 565 -570 0
1 -565 -525 0
1 565 562 0
1 -565 -521 0
1 -571 -572 0
1 -562 520 0
1 562 -522 0
1 -562 -528 0
1 562 -572 0
1 562 -539 0
1 562 -541 0
1 -512 563 0
1 512 -572 0
1 -515 -563 0
1 -515 512 0
1 -515 -568 0
1 532 -517 0
1 532 -521 0
1 -541 524 0
1 541 521 0
1 -541 -570 0
1 -540 -573 0
1 -540 -574 0
1 -540 482 0
1 -540 575 0
1 -540 -576 0
1 540 -527 0
1 -540 -562 0
1 -540 -523 0
1 539 -529 0
1 -539 -569 0
1 -539 521 0
1 570 -577 0
1 570 578 0
1 570 535 0
1 -521 540 0
1 -521 -532 0
1 -521 -570 0
1 -521 535 0
1 -521 -541 0
1 569 439 0
1 569 579 0
1 -523 511 0
1 -523 580 0
1 523 535 0
1 -523 -579 0
1 523 -581 0
1 523 -572 0
1 523 -539 0
1 -523 -541 0
1 -538 -573 0
1 -538 -574 0
1 538 -529 0
1 -538 -580 0
1 -538 576 0
1 538 537 0
1 -537 529 0
1 -537 530 0
1 537 527 0
1 537 -454 0
1 537 -479 0
1 -537 -465 0
1 -578 573 0
1 578 -582 0
1 578 -547 0
1 -578 521 0
1 547 583 0
1 -547 570 0
1 547 576 0
1 -547 -581 0
1 531 -538 0
1 -531 526 0
1 574 -551 0
1 -574 -552 0
1 -574 547 0
1 576 525 0
1 576 -547 0
1 576 539 0
1 -573 -524 0
1 -573 578 0
1 573 -584 0
1 573 537 0
1 544 -574 0
1 544 -585 0
1 544 -583 0
1 544 534 0
1 544 546 0
1 -546 582 0
1 -546 -536 0
1 546 -470 0
1 -551 554 0
1 551 -583 0
1 551 -472 0
1 551 -552 0
1 551 -531 0
1 551 470 0
1 -552 574 0
1 552 583 0
1 552 -472 0
1 582 -544 0
1 582 -454 0
1 -583 -551 0
1 -583 -547 0
1 586 544 0
1 586 -547 0
1 585 578 0
1 585 586 0
1 567 -506 0
1 567 -532 0
1 567 -558 0
1 568 -506 0
1 568 567 0
1 568 558 0
1 -568 -541 0
1 575 -587 0
1 -575 -512 0
1 575 540 0
1 -575 -560 0
1 575 -588 0
1 -575 566 0
1 589 559 0
1 -589 -590 0
1 -589 575 0
1 589 591 0
1 589 -560 0
1 589 -566 0
1 559 -575 0
1 560 580 0
1 560 556 0
1 -560 581 0
1 587 -567 0
1 -591 -567 0
1 -591 -589 0
1 -591 -568 0
1 580 512 0
1 -580 569 0
1 580 -588 0
1 580 -566 0
1 580 562 0
1 572 -564 0
1 -572 569 0
1 592 -559 0
1 -592 590 0
1 -592 -564 0
1 592 -593 0
1 -592 -594 0
1 592 -523 0
1 -581 -590 0
1 581 -595 0
1 581 -588 0
1 -581 547 0
1 564 566 0
1 564 -580 0
1 564 584 0
1 566 -577 0
1 566 -580 0
1 -566 -575 0
1 -566 584 0
1 566 -572 0
1 590 575 0
1 -588 -581 0
1 588 572 0
1 -577 -569 0
1 577 -576 0
1 579 -596 0
1 597 -551 0
1 597 -593 0
1 597 594 0
1 584 -595 0
1 584 552 0
1 -584 -594 0
1 595 -571 0
1 595 579 0
1 -594 592 0
1 -594 -595 0
1 -596 -577 0
1 -596 593 0
1 596 -579 0
1 593 -584 0
1 -593 -515 0
